% Generated FlatZinc statistics:
%%%mzn-stat: paths=0
%%%mzn-stat: flatBoolVars=178
%%%mzn-stat: flatIntVars=314
%%%mzn-stat: flatBoolConstraints=89
%%%mzn-stat: flatIntConstraints=365
%%%mzn-stat: evaluatedReifiedConstraints=44
%%%mzn-stat: evaluatedHalfReifiedConstraints=134
%%%mzn-stat: method="minimize"
%%%mzn-stat: flatTime=64.5035
%%%mzn-stat-end

S = [39, 8, 45, 16, 21, 27, 17, 24, 19, 10, 43, 9, 35, 30, 15, 3, 40, 18, 44, 23, 11, 22, 5, 42, 28, 41, 32, 33, 29, 20, 31, 34, 26, 7, 2, 13, 37, 6, 14, 25, 4, 12, 36, 38, 1]
P = [45, 35, 16, 41, 23, 38, 34, 2, 12, 10, 21, 42, 36, 39, 15, 4, 7, 18, 9, 30, 5, 22, 20, 8, 40, 33, 6, 25, 29, 14, 31, 27, 28, 32, 13, 43, 37, 44, 1, 17, 26, 24, 11, 19, 3]
cost = 29792
%%%mzn-stat: initTime=0.028911
%%%mzn-stat: solveTime=18.2094
%%%mzn-stat: solutions=27
%%%mzn-stat: variables=539
%%%mzn-stat: propagators=325
%%%mzn-stat: propagations=64645164
%%%mzn-stat: nodes=382498
%%%mzn-stat: failures=191164
%%%mzn-stat: restarts=0
%%%mzn-stat: peakDepth=26
%%%mzn-stat-end
itinerary = [1,39,14,30,20,23,5,21,11,43,36,13,35,2,8,24,42,12,9,19,44,38,6,27,32,34,7,17,40,25,28,33,26,41,4,16,3,45]
opt = true
